(set-info :Origin "This instance was generated by: BanditFuzz-- an RL fuzzer for SMT solvers" )
(set-info :Author "Joe Scott, Fed Mora, Vijay Ganesh" )
(set-info :Contact "Joe Scott, joseph.scott@uwaterloo.ca")
(set-logic QF_BV)
(declare-const bool_0 Bool)
(declare-const bool_1 Bool)
(declare-const bool_2 Bool)
(declare-const bool_3 Bool)
(declare-const bool_4 Bool)
(declare-const bv_0 (_ BitVec 32))
(declare-const bv_1 (_ BitVec 32))
(declare-const bv_2 (_ BitVec 32))
(declare-const bv_3 (_ BitVec 32))
(declare-const bv_4 (_ BitVec 32))
(assert (bvuge (bvxor (bvsmod #x1aad9d55  bv_1) (bvxor #x44ae8008  #x6aef7c0a )) (bvsmod (bvnand #xf6287269  bv_1) (bvsmod bv_3 #x4530610b ))))
(assert (bvult (bvsdiv (bvurem #xe60b6221  #x01699a16 ) (bvshl bv_2 #x0c84f19e )) (bvlshr (bvmul bv_0 bv_1) (bvudiv #x4a52580a  #x330c1a38 ))))
(assert (xor (bvslt (bvudiv #x9873f5d2  #x834afba9 ) (bvshl bv_3 bv_3)) (bvsle (bvor bv_2 #xfa5efcb5 ) (bvnand bv_0 #x2759285d ))))
(assert (bvugt (bvand (bvand #xc9349161  #x380f4497 ) (bvxnor bv_3 #x573f574f )) (bvsrem (bvsdiv #xcb40f05d  #x2edafa83 ) (bvsmod #x1778b5bb  bv_2))))
(assert (and (bvsge (bvnand bv_1 #x88d643c3 ) (bvudiv bv_4 #xb9df6ece )) (bvsgt (bvshl bv_1 bv_2) (bvxor #x2c96f761  #x9d2bf162 ))))
(check-sat)
(exit)
